10 23 001
2 2 8 7 4 10 3 6 
4 3 6 8 1 2 10 9 3 10 7 8 9 2 
7 7 5 4 9 2 2 10 4 10 1 6 
5 9 2 3 9 4 3 10 6 3 1 10 
4 9 3 4 7 9 
2 8 8 1 7 4 9 7 4 3 
3 7 6 4 2 8 5 9 8 3 
6 1 1 7 10 10 7 3 
4 4 3 2 6 7 2 2 
2 9 8 10 
